p cnf 12 42
-12 -11 -10 0
-12 -11 2 0
-12 10 -9 0
12 -10 7 0
-12 9 -8 0
12 9 7 0
12 -9 5 0
-12 9 -4 0
-12 8 3 0
12 -8 -3 0
-12 8 1 0
12 -7 4 0
12 -4 3 0
-12 -3 1 0
-11 8 3 0
11 7 -5 0
11 7 2 0
-11 5 -1 0
11 4 3 0
-11 -3 1 0
10 -8 6 0
10 -8 -6 0
10 7 3 0
-10 -5 -2 0
10 -5 1 0
9 4 2 0
9 4 -1 0
-8 7 -6 0
-8 -7 6 0
8 -7 -2 0
8 7 1 0
-8 -7 -1 0
8 6 4 0
-8 -6 -1 0
8 -4 -3 0
7 -5 2 0
7 5 -1 0
-7 -4 1 0
-7 -3 -2 0
-6 -4 -3 0
5 -3 -1 0
-5 -2 -1 0
